10	5
0	4	3	4	2	1
1	1	7
2	1	6
3	2	5	7
4	0
5	1	9
6	1	7
7	1	8
8	1	10
9	1	11
10	1	11
11	0
0	0	0	0	0	0	0
1	9	0	0	0	2	4
2	6	3	1	4	0	3
3	10	1	0	1	4	3
4	8	4	1	2	3	4
5	5	4	0	4	4	0
6	3	3	4	5	0	0
7	5	1	2	4	2	1
8	5	1	2	3	4	2
9	6	4	0	4	0	1
10	3	0	3	1	2	4
11	0	0	0	0	0	0
4	4	5	5	5
